Maximize
2 x0 + 5 x1 + 3 x2 + 4 x3 + 4 x4 + 6 x5 - 2 y0 - 2 y1 - 3 y2
Subject To
crc0: x0 + x1 <= 1
crc1: x0 + x2 <= 1
crc2: x1 + x2 <= 1
crc3: x0 + x3 <= 1
crc4: x2 + x3 <= 1
crc5: x0 + x4 <= 1
crc6: x1 + x4 <= 1
crc7: x2 + x4 <= 1
crc8: x0 + x5 <= 1
crc9: x2 + x5 <= 1
crc10: x3 + x5 <= 1
crc11: x4 + x5 <= 1
coc0-0: x3 + x1 + 0 - 2 y0 >= 0
coc0-1: x3 + x1 - 2 y0 <= 1
coc1-0: x3 + x4 + 0 - 2 y1 >= 0
coc1-1: x3 + x4 - 2 y1 <= 1
coc2-0: x5 + x1 + 0 - 2 y2 >= 0
coc2-1: x5 + x1 - 2 y2 <= 1
Binaries
x0 x1 x2 x3 x4 x5 y0 y1 y2
End
